Minimize
M1 + M2
Subject To
x0,5 + x0,6 + x0,7 + x0,8 + x0,9 = 1
x1,6 + x1,7 + x1,8 + x1,9 = 1
x2,6 + x2,7 + x2,8 + x2,9 + x2,10 = 1
x3,5 + x3,6 + x3,7 + x3,8 = 1
x4,4 + x4,5 + x4,6 + x4,7 = 1
x5,3 + x5,4 + x5,5 + x5,6 = 1
x6,8 + x6,9 = 1
x7,9 = 1
x8,9 + x8,10 = 1
x9,8 = 1
x10,7 = 1
x11,6 = 1
x12,8 + x12,9 = 1
x13,9 = 1
x14,9 + x14,10 = 1
x15,8 = 1
x16,7 = 1
x17,6 = 1
x18,5 = 1
x19,3 = 1
x20,2 = 1
x21,3 + x21,4 + x21,5 + x21,6 + x21,7 + x21,8 + x21,9 = 1
x22,4 + x22,5 + x22,6 + x22,7 + x22,8 + x22,9 = 1
x23,4 + x23,5 + x23,6 + x23,7 + x23,8 + x23,9 + x23,10 = 1
x24,3 + x24,4 + x24,5 + x24,6 + x24,7 + x24,8 = 1
x25,2 + x25,3 + x25,4 + x25,5 + x25,6 + x25,7 = 1
x26,1 = 1
x27,5 + x27,6 + x27,7 + x27,8 + x27,9 = 1
x28,6 + x28,7 + x28,8 + x28,9 = 1
x29,6 + x29,7 + x29,8 + x29,9 + x29,10 = 1
x30,5 + x30,6 + x30,7 + x30,8 = 1
x31,4 + x31,5 + x31,6 + x31,7 = 1
x32,3 + x32,4 + x32,5 + x32,6 = 1
x33,8 + x33,9 = 1
x34,9 = 1
x35,9 + x35,10 = 1
x36,8 = 1
x37,7 = 1
x38,6 = 1
x39,8 + x39,9 = 1
x40,9 = 1
x41,9 + x41,10 = 1
x42,8 = 1
x43,7 = 1
x44,6 = 1
x45,5 = 1
x46,3 = 1
x47,2 = 1
x48,3 + x48,4 + x48,5 + x48,6 + x48,7 + x48,8 + x48,9 = 1
x49,4 + x49,5 + x49,6 + x49,7 + x49,8 + x49,9 = 1
x50,4 + x50,5 + x50,6 + x50,7 + x50,8 + x50,9 + x50,10 = 1
x51,3 + x51,4 + x51,5 + x51,6 + x51,7 + x51,8 = 1
x52,2 + x52,3 + x52,4 + x52,5 + x52,6 + x52,7 = 1
x53,1 = 1
x54,5 + x54,6 + x54,7 + x54,8 + x54,9 = 1
x55,6 + x55,7 + x55,8 + x55,9 = 1
x56,6 + x56,7 + x56,8 + x56,9 + x56,10 = 1
x57,5 + x57,6 + x57,7 + x57,8 = 1
x58,4 + x58,5 + x58,6 + x58,7 = 1
x59,3 + x59,4 + x59,5 + x59,6 = 1
x60,8 + x60,9 = 1
x61,9 = 1
x62,9 + x62,10 = 1
x63,8 = 1
x64,7 = 1
x65,6 = 1
x66,8 + x66,9 = 1
x67,9 = 1
x68,9 + x68,10 = 1
x69,8 = 1
x70,7 = 1
x71,6 = 1
x72,5 = 1
x73,3 = 1
x74,2 = 1
x75,3 + x75,4 + x75,5 + x75,6 + x75,7 + x75,8 + x75,9 = 1
x76,4 + x76,5 + x76,6 + x76,7 + x76,8 + x76,9 = 1
x77,4 + x77,5 + x77,6 + x77,7 + x77,8 + x77,9 + x77,10 = 1
x78,3 + x78,4 + x78,5 + x78,6 + x78,7 + x78,8 = 1
x79,2 + x79,3 + x79,4 + x79,5 + x79,6 + x79,7 = 1
x80,1 = 1
x81,5 + x81,6 + x81,7 + x81,8 + x81,9 = 1
x82,6 + x82,7 + x82,8 + x82,9 = 1
x83,6 + x83,7 + x83,8 + x83,9 + x83,10 = 1
x84,5 + x84,6 + x84,7 + x84,8 = 1
x85,4 + x85,5 + x85,6 + x85,7 = 1
x86,3 + x86,4 + x86,5 + x86,6 = 1
x87,8 + x87,9 = 1
x88,9 = 1
x89,9 + x89,10 = 1
x90,8 = 1
x91,7 = 1
x92,6 = 1
x93,8 + x93,9 = 1
x94,9 = 1
x95,9 + x95,10 = 1
x96,8 = 1
x97,7 = 1
x98,6 = 1
x99,5 = 1
x100,3 = 1
x101,2 = 1
x102,3 + x102,4 + x102,5 + x102,6 + x102,7 + x102,8 + x102,9 = 1
x103,4 + x103,5 + x103,6 + x103,7 + x103,8 + x103,9 = 1
x104,4 + x104,5 + x104,6 + x104,7 + x104,8 + x104,9 + x104,10 = 1
x105,3 + x105,4 + x105,5 + x105,6 + x105,7 + x105,8 = 1
x106,2 + x106,3 + x106,4 + x106,5 + x106,6 + x106,7 = 1
x107,1 = 1
x26,1 + x53,1 + x80,1 + x107,1 - M2 <= 0
x20,2 + x25,2 + x47,2 + x52,2 + x74,2 + x79,2 + x101,2 + x106,2 - M2 <= 0
x5,3 + x24,3 + x25,3 + x32,3 + x51,3 + x52,3 + x59,3 + x78,3 + x79,3 + x86,3 + x105,3 + x106,3 - M2 <= 0
x19,3 + x19,2 + x21,3 + x21,2 + x46,3 + x46,2 + x48,3 + x48,2 + x73,3 + x73,2 + x75,3 + x75,2 + x100,3 + x100,2 + x102,3 + x102,2 - M1 <= 0
x4,4 + x5,4 + x23,4 + x24,4 + x25,4 + x31,4 + x32,4 + x50,4 + x51,4 + x52,4 + x58,4 + x59,4 + x77,4 + x78,4 + x79,4 + x85,4 + x86,4 + x104,4 + x105,4 + x106,4 - M2 <= 0
x19,4 + x19,3 + x21,4 + x21,3 + x22,4 + x22,3 + x46,4 + x46,3 + x48,4 + x48,3 + x49,4 + x49,3 + x73,4 + x73,3 + x75,4 + x75,3 + x76,4 + x76,3 + x100,4 + x100,3 + x102,4 + x102,3 + x103,4 + x103,3 - M1 <= 0
x3,5 + x4,5 + x5,5 + x18,5 + x23,5 + x24,5 + x25,5 + x30,5 + x31,5 + x32,5 + x45,5 + x50,5 + x51,5 + x52,5 + x57,5 + x58,5 + x59,5 + x72,5 + x77,5 + x78,5 + x79,5 + x84,5 + x85,5 + x86,5 + x99,5 + x104,5 + x105,5 + x106,5 - M2 <= 0
x0,5 + x0,4 + x21,5 + x21,4 + x22,5 + x22,4 + x27,5 + x27,4 + x48,5 + x48,4 + x49,5 + x49,4 + x54,5 + x54,4 + x75,5 + x75,4 + x76,5 + x76,4 + x81,5 + x81,4 + x102,5 + x102,4 + x103,5 + x103,4 - M1 <= 0
x2,6 + x3,6 + x4,6 + x5,6 + x11,6 + x17,6 + x23,6 + x24,6 + x25,6 + x29,6 + x30,6 + x31,6 + x32,6 + x38,6 + x44,6 + x50,6 + x51,6 + x52,6 + x56,6 + x57,6 + x58,6 + x59,6 + x65,6 + x71,6 + x77,6 + x78,6 + x79,6 + x83,6 + x84,6 + x85,6 + x86,6 + x92,6 + x98,6 + x104,6 + x105,6 + x106,6 - M2 <= 0
x0,6 + x0,5 + x1,6 + x1,5 + x21,6 + x21,5 + x22,6 + x22,5 + x27,6 + x27,5 + x28,6 + x28,5 + x48,6 + x48,5 + x49,6 + x49,5 + x54,6 + x54,5 + x55,6 + x55,5 + x75,6 + x75,5 + x76,6 + x76,5 + x81,6 + x81,5 + x82,6 + x82,5 + x102,6 + x102,5 + x103,6 + x103,5 - M1 <= 0
x2,7 + x3,7 + x4,7 + x10,7 + x16,7 + x23,7 + x24,7 + x25,7 + x29,7 + x30,7 + x31,7 + x37,7 + x43,7 + x50,7 + x51,7 + x52,7 + x56,7 + x57,7 + x58,7 + x64,7 + x70,7 + x77,7 + x78,7 + x79,7 + x83,7 + x84,7 + x85,7 + x91,7 + x97,7 + x104,7 + x105,7 + x106,7 - M2 <= 0
x0,7 + x0,6 + x1,7 + x1,6 + x21,7 + x21,6 + x22,7 + x22,6 + x27,7 + x27,6 + x28,7 + x28,6 + x48,7 + x48,6 + x49,7 + x49,6 + x54,7 + x54,6 + x55,7 + x55,6 + x75,7 + x75,6 + x76,7 + x76,6 + x81,7 + x81,6 + x82,7 + x82,6 + x102,7 + x102,6 + x103,7 + x103,6 - M1 <= 0
x2,8 + x3,8 + x9,8 + x15,8 + x23,8 + x24,8 + x29,8 + x30,8 + x36,8 + x42,8 + x50,8 + x51,8 + x56,8 + x57,8 + x63,8 + x69,8 + x77,8 + x78,8 + x83,8 + x84,8 + x90,8 + x96,8 + x104,8 + x105,8 - M2 <= 0
x0,8 + x0,7 + x1,8 + x1,7 + x6,8 + x6,7 + x12,8 + x12,7 + x21,8 + x21,7 + x22,8 + x22,7 + x27,8 + x27,7 + x28,8 + x28,7 + x33,8 + x33,7 + x39,8 + x39,7 + x48,8 + x48,7 + x49,8 + x49,7 + x54,8 + x54,7 + x55,8 + x55,7 + x60,8 + x60,7 + x66,8 + x66,7 + x75,8 + x75,7 + x76,8 + x76,7 + x81,8 + x81,7 + x82,8 + x82,7 + x87,8 + x87,7 + x93,8 + x93,7 + x102,8 + x102,7 + x103,8 + x103,7 - M1 <= 0
x2,9 + x8,9 + x14,9 + x23,9 + x29,9 + x35,9 + x41,9 + x50,9 + x56,9 + x62,9 + x68,9 + x77,9 + x83,9 + x89,9 + x95,9 + x104,9 - M2 <= 0
x0,9 + x0,8 + x1,9 + x1,8 + x6,9 + x6,8 + x7,9 + x7,8 + x12,9 + x12,8 + x13,9 + x13,8 + x21,9 + x21,8 + x22,9 + x22,8 + x27,9 + x27,8 + x28,9 + x28,8 + x33,9 + x33,8 + x34,9 + x34,8 + x39,9 + x39,8 + x40,9 + x40,8 + x48,9 + x48,8 + x49,9 + x49,8 + x54,9 + x54,8 + x55,9 + x55,8 + x60,9 + x60,8 + x61,9 + x61,8 + x66,9 + x66,8 + x67,9 + x67,8 + x75,9 + x75,8 + x76,9 + x76,8 + x81,9 + x81,8 + x82,9 + x82,8 + x87,9 + x87,8 + x88,9 + x88,8 + x93,9 + x93,8 + x94,9 + x94,8 + x102,9 + x102,8 + x103,9 + x103,8 - M1 <= 0
x2,10 + x8,10 + x14,10 + x23,10 + x29,10 + x35,10 + x41,10 + x50,10 + x56,10 + x62,10 + x68,10 + x77,10 + x83,10 + x89,10 + x95,10 + x104,10 - M2 <= 0
x0,10 + x0,9 + x1,10 + x1,9 + x6,10 + x6,9 + x7,10 + x7,9 + x12,10 + x12,9 + x13,10 + x13,9 + x21,10 + x21,9 + x22,10 + x22,9 + x27,10 + x27,9 + x28,10 + x28,9 + x33,10 + x33,9 + x34,10 + x34,9 + x39,10 + x39,9 + x40,10 + x40,9 + x48,10 + x48,9 + x49,10 + x49,9 + x54,10 + x54,9 + x55,10 + x55,9 + x60,10 + x60,9 + x61,10 + x61,9 + x66,10 + x66,9 + x67,10 + x67,9 + x75,10 + x75,9 + x76,10 + x76,9 + x81,10 + x81,9 + x82,10 + x82,9 + x87,10 + x87,9 + x88,10 + x88,9 + x93,10 + x93,9 + x94,10 + x94,9 + x102,10 + x102,9 + x103,10 + x103,9 - M1 <= 0
5 x3,5 + 6 x3,6 + 7 x3,7 + 8 x3,8 - 6 x1,6 - 7 x1,7 - 8 x1,8 - 9 x1,9 <= -1
5 x3,5 + 6 x3,6 + 7 x3,7 + 8 x3,8 - 6 x2,6 - 7 x2,7 - 8 x2,8 - 9 x2,9 - 10 x2,10 <= -1
4 x4,4 + 5 x4,5 + 6 x4,6 + 7 x4,7 - 5 x0,5 - 6 x0,6 - 7 x0,7 - 8 x0,8 - 9 x0,9 <= -1
4 x4,4 + 5 x4,5 + 6 x4,6 + 7 x4,7 - 5 x3,5 - 6 x3,6 - 7 x3,7 - 8 x3,8 <= -1
3 x5,3 + 4 x5,4 + 5 x5,5 + 6 x5,6 - 4 x4,4 - 5 x4,5 - 6 x4,6 - 7 x4,7 <= -1
8 x9,8 - 9 x7,9 <= -1
8 x9,8 - 9 x8,9 - 10 x8,10 <= -1
7 x10,7 - 8 x6,8 - 9 x6,9 <= -1
7 x10,7 - 8 x9,8 <= -1
6 x11,6 - 7 x10,7 <= -1
8 x15,8 - 9 x13,9 <= -1
8 x15,8 - 9 x14,9 - 10 x14,10 <= -1
7 x16,7 - 8 x12,8 - 9 x12,9 <= -1
7 x16,7 - 8 x15,8 <= -1
6 x17,6 - 7 x16,7 <= -1
5 x18,5 - 6 x11,6 <= -1
5 x18,5 - 6 x17,6 <= -1
3 x19,3 - 5 x18,5 <= -2
2 x20,2 - 3 x5,3 - 4 x5,4 - 5 x5,5 - 6 x5,6 <= -1
2 x20,2 - 3 x19,3 <= -1
3 x24,3 + 4 x24,4 + 5 x24,5 + 6 x24,6 + 7 x24,7 + 8 x24,8 - 4 x22,4 - 5 x22,5 - 6 x22,6 - 7 x22,7 - 8 x22,8 - 9 x22,9 <= -1
3 x24,3 + 4 x24,4 + 5 x24,5 + 6 x24,6 + 7 x24,7 + 8 x24,8 - 4 x23,4 - 5 x23,5 - 6 x23,6 - 7 x23,7 - 8 x23,8 - 9 x23,9 - 10 x23,10 <= -1
2 x25,2 + 3 x25,3 + 4 x25,4 + 5 x25,5 + 6 x25,6 + 7 x25,7 - 3 x21,3 - 4 x21,4 - 5 x21,5 - 6 x21,6 - 7 x21,7 - 8 x21,8 - 9 x21,9 <= -1
2 x25,2 + 3 x25,3 + 4 x25,4 + 5 x25,5 + 6 x25,6 + 7 x25,7 - 3 x24,3 - 4 x24,4 - 5 x24,5 - 6 x24,6 - 7 x24,7 - 8 x24,8 <= -1
1 x26,1 - 2 x20,2 <= -1
1 x26,1 - 2 x25,2 - 3 x25,3 - 4 x25,4 - 5 x25,5 - 6 x25,6 - 7 x25,7 <= -1
5 x30,5 + 6 x30,6 + 7 x30,7 + 8 x30,8 - 6 x28,6 - 7 x28,7 - 8 x28,8 - 9 x28,9 <= -1
5 x30,5 + 6 x30,6 + 7 x30,7 + 8 x30,8 - 6 x29,6 - 7 x29,7 - 8 x29,8 - 9 x29,9 - 10 x29,10 <= -1
4 x31,4 + 5 x31,5 + 6 x31,6 + 7 x31,7 - 5 x27,5 - 6 x27,6 - 7 x27,7 - 8 x27,8 - 9 x27,9 <= -1
4 x31,4 + 5 x31,5 + 6 x31,6 + 7 x31,7 - 5 x30,5 - 6 x30,6 - 7 x30,7 - 8 x30,8 <= -1
3 x32,3 + 4 x32,4 + 5 x32,5 + 6 x32,6 - 4 x31,4 - 5 x31,5 - 6 x31,6 - 7 x31,7 <= -1
8 x36,8 - 9 x34,9 <= -1
8 x36,8 - 9 x35,9 - 10 x35,10 <= -1
7 x37,7 - 8 x33,8 - 9 x33,9 <= -1
7 x37,7 - 8 x36,8 <= -1
6 x38,6 - 7 x37,7 <= -1
8 x42,8 - 9 x40,9 <= -1
8 x42,8 - 9 x41,9 - 10 x41,10 <= -1
7 x43,7 - 8 x39,8 - 9 x39,9 <= -1
7 x43,7 - 8 x42,8 <= -1
6 x44,6 - 7 x43,7 <= -1
5 x45,5 - 6 x38,6 <= -1
5 x45,5 - 6 x44,6 <= -1
3 x46,3 - 5 x45,5 <= -2
2 x47,2 - 3 x32,3 - 4 x32,4 - 5 x32,5 - 6 x32,6 <= -1
2 x47,2 - 3 x46,3 <= -1
3 x51,3 + 4 x51,4 + 5 x51,5 + 6 x51,6 + 7 x51,7 + 8 x51,8 - 4 x49,4 - 5 x49,5 - 6 x49,6 - 7 x49,7 - 8 x49,8 - 9 x49,9 <= -1
3 x51,3 + 4 x51,4 + 5 x51,5 + 6 x51,6 + 7 x51,7 + 8 x51,8 - 4 x50,4 - 5 x50,5 - 6 x50,6 - 7 x50,7 - 8 x50,8 - 9 x50,9 - 10 x50,10 <= -1
2 x52,2 + 3 x52,3 + 4 x52,4 + 5 x52,5 + 6 x52,6 + 7 x52,7 - 3 x48,3 - 4 x48,4 - 5 x48,5 - 6 x48,6 - 7 x48,7 - 8 x48,8 - 9 x48,9 <= -1
2 x52,2 + 3 x52,3 + 4 x52,4 + 5 x52,5 + 6 x52,6 + 7 x52,7 - 3 x51,3 - 4 x51,4 - 5 x51,5 - 6 x51,6 - 7 x51,7 - 8 x51,8 <= -1
1 x53,1 - 2 x47,2 <= -1
1 x53,1 - 2 x52,2 - 3 x52,3 - 4 x52,4 - 5 x52,5 - 6 x52,6 - 7 x52,7 <= -1
5 x57,5 + 6 x57,6 + 7 x57,7 + 8 x57,8 - 6 x55,6 - 7 x55,7 - 8 x55,8 - 9 x55,9 <= -1
5 x57,5 + 6 x57,6 + 7 x57,7 + 8 x57,8 - 6 x56,6 - 7 x56,7 - 8 x56,8 - 9 x56,9 - 10 x56,10 <= -1
4 x58,4 + 5 x58,5 + 6 x58,6 + 7 x58,7 - 5 x54,5 - 6 x54,6 - 7 x54,7 - 8 x54,8 - 9 x54,9 <= -1
4 x58,4 + 5 x58,5 + 6 x58,6 + 7 x58,7 - 5 x57,5 - 6 x57,6 - 7 x57,7 - 8 x57,8 <= -1
3 x59,3 + 4 x59,4 + 5 x59,5 + 6 x59,6 - 4 x58,4 - 5 x58,5 - 6 x58,6 - 7 x58,7 <= -1
8 x63,8 - 9 x61,9 <= -1
8 x63,8 - 9 x62,9 - 10 x62,10 <= -1
7 x64,7 - 8 x60,8 - 9 x60,9 <= -1
7 x64,7 - 8 x63,8 <= -1
6 x65,6 - 7 x64,7 <= -1
8 x69,8 - 9 x67,9 <= -1
8 x69,8 - 9 x68,9 - 10 x68,10 <= -1
7 x70,7 - 8 x66,8 - 9 x66,9 <= -1
7 x70,7 - 8 x69,8 <= -1
6 x71,6 - 7 x70,7 <= -1
5 x72,5 - 6 x65,6 <= -1
5 x72,5 - 6 x71,6 <= -1
3 x73,3 - 5 x72,5 <= -2
2 x74,2 - 3 x59,3 - 4 x59,4 - 5 x59,5 - 6 x59,6 <= -1
2 x74,2 - 3 x73,3 <= -1
3 x78,3 + 4 x78,4 + 5 x78,5 + 6 x78,6 + 7 x78,7 + 8 x78,8 - 4 x76,4 - 5 x76,5 - 6 x76,6 - 7 x76,7 - 8 x76,8 - 9 x76,9 <= -1
3 x78,3 + 4 x78,4 + 5 x78,5 + 6 x78,6 + 7 x78,7 + 8 x78,8 - 4 x77,4 - 5 x77,5 - 6 x77,6 - 7 x77,7 - 8 x77,8 - 9 x77,9 - 10 x77,10 <= -1
2 x79,2 + 3 x79,3 + 4 x79,4 + 5 x79,5 + 6 x79,6 + 7 x79,7 - 3 x75,3 - 4 x75,4 - 5 x75,5 - 6 x75,6 - 7 x75,7 - 8 x75,8 - 9 x75,9 <= -1
2 x79,2 + 3 x79,3 + 4 x79,4 + 5 x79,5 + 6 x79,6 + 7 x79,7 - 3 x78,3 - 4 x78,4 - 5 x78,5 - 6 x78,6 - 7 x78,7 - 8 x78,8 <= -1
1 x80,1 - 2 x74,2 <= -1
1 x80,1 - 2 x79,2 - 3 x79,3 - 4 x79,4 - 5 x79,5 - 6 x79,6 - 7 x79,7 <= -1
5 x84,5 + 6 x84,6 + 7 x84,7 + 8 x84,8 - 6 x82,6 - 7 x82,7 - 8 x82,8 - 9 x82,9 <= -1
5 x84,5 + 6 x84,6 + 7 x84,7 + 8 x84,8 - 6 x83,6 - 7 x83,7 - 8 x83,8 - 9 x83,9 - 10 x83,10 <= -1
4 x85,4 + 5 x85,5 + 6 x85,6 + 7 x85,7 - 5 x81,5 - 6 x81,6 - 7 x81,7 - 8 x81,8 - 9 x81,9 <= -1
4 x85,4 + 5 x85,5 + 6 x85,6 + 7 x85,7 - 5 x84,5 - 6 x84,6 - 7 x84,7 - 8 x84,8 <= -1
3 x86,3 + 4 x86,4 + 5 x86,5 + 6 x86,6 - 4 x85,4 - 5 x85,5 - 6 x85,6 - 7 x85,7 <= -1
8 x90,8 - 9 x88,9 <= -1
8 x90,8 - 9 x89,9 - 10 x89,10 <= -1
7 x91,7 - 8 x87,8 - 9 x87,9 <= -1
7 x91,7 - 8 x90,8 <= -1
6 x92,6 - 7 x91,7 <= -1
8 x96,8 - 9 x94,9 <= -1
8 x96,8 - 9 x95,9 - 10 x95,10 <= -1
7 x97,7 - 8 x93,8 - 9 x93,9 <= -1
7 x97,7 - 8 x96,8 <= -1
6 x98,6 - 7 x97,7 <= -1
5 x99,5 - 6 x92,6 <= -1
5 x99,5 - 6 x98,6 <= -1
3 x100,3 - 5 x99,5 <= -2
2 x101,2 - 3 x86,3 - 4 x86,4 - 5 x86,5 - 6 x86,6 <= -1
2 x101,2 - 3 x100,3 <= -1
3 x105,3 + 4 x105,4 + 5 x105,5 + 6 x105,6 + 7 x105,7 + 8 x105,8 - 4 x103,4 - 5 x103,5 - 6 x103,6 - 7 x103,7 - 8 x103,8 - 9 x103,9 <= -1
3 x105,3 + 4 x105,4 + 5 x105,5 + 6 x105,6 + 7 x105,7 + 8 x105,8 - 4 x104,4 - 5 x104,5 - 6 x104,6 - 7 x104,7 - 8 x104,8 - 9 x104,9 - 10 x104,10 <= -1
2 x106,2 + 3 x106,3 + 4 x106,4 + 5 x106,5 + 6 x106,6 + 7 x106,7 - 3 x102,3 - 4 x102,4 - 5 x102,5 - 6 x102,6 - 7 x102,7 - 8 x102,8 - 9 x102,9 <= -1
2 x106,2 + 3 x106,3 + 4 x106,4 + 5 x106,5 + 6 x106,6 + 7 x106,7 - 3 x105,3 - 4 x105,4 - 5 x105,5 - 6 x105,6 - 7 x105,7 - 8 x105,8 <= -1
1 x107,1 - 2 x101,2 <= -1
1 x107,1 - 2 x106,2 - 3 x106,3 - 4 x106,4 - 5 x106,5 - 6 x106,6 - 7 x106,7 <= -1
Bounds
0 <= x0,5 <= 1
0 <= x0,6 <= 1
0 <= x0,7 <= 1
0 <= x0,8 <= 1
0 <= x0,9 <= 1
0 <= x1,6 <= 1
0 <= x1,7 <= 1
0 <= x1,8 <= 1
0 <= x1,9 <= 1
0 <= x2,6 <= 1
0 <= x2,7 <= 1
0 <= x2,8 <= 1
0 <= x2,9 <= 1
0 <= x2,10 <= 1
0 <= x3,5 <= 1
0 <= x3,6 <= 1
0 <= x3,7 <= 1
0 <= x3,8 <= 1
0 <= x4,4 <= 1
0 <= x4,5 <= 1
0 <= x4,6 <= 1
0 <= x4,7 <= 1
0 <= x5,3 <= 1
0 <= x5,4 <= 1
0 <= x5,5 <= 1
0 <= x5,6 <= 1
0 <= x6,8 <= 1
0 <= x6,9 <= 1
0 <= x7,9 <= 1
0 <= x8,9 <= 1
0 <= x8,10 <= 1
0 <= x9,8 <= 1
0 <= x10,7 <= 1
0 <= x11,6 <= 1
0 <= x12,8 <= 1
0 <= x12,9 <= 1
0 <= x13,9 <= 1
0 <= x14,9 <= 1
0 <= x14,10 <= 1
0 <= x15,8 <= 1
0 <= x16,7 <= 1
0 <= x17,6 <= 1
0 <= x18,5 <= 1
0 <= x19,3 <= 1
0 <= x20,2 <= 1
0 <= x21,3 <= 1
0 <= x21,4 <= 1
0 <= x21,5 <= 1
0 <= x21,6 <= 1
0 <= x21,7 <= 1
0 <= x21,8 <= 1
0 <= x21,9 <= 1
0 <= x22,4 <= 1
0 <= x22,5 <= 1
0 <= x22,6 <= 1
0 <= x22,7 <= 1
0 <= x22,8 <= 1
0 <= x22,9 <= 1
0 <= x23,4 <= 1
0 <= x23,5 <= 1
0 <= x23,6 <= 1
0 <= x23,7 <= 1
0 <= x23,8 <= 1
0 <= x23,9 <= 1
0 <= x23,10 <= 1
0 <= x24,3 <= 1
0 <= x24,4 <= 1
0 <= x24,5 <= 1
0 <= x24,6 <= 1
0 <= x24,7 <= 1
0 <= x24,8 <= 1
0 <= x25,2 <= 1
0 <= x25,3 <= 1
0 <= x25,4 <= 1
0 <= x25,5 <= 1
0 <= x25,6 <= 1
0 <= x25,7 <= 1
0 <= x26,1 <= 1
0 <= x27,5 <= 1
0 <= x27,6 <= 1
0 <= x27,7 <= 1
0 <= x27,8 <= 1
0 <= x27,9 <= 1
0 <= x28,6 <= 1
0 <= x28,7 <= 1
0 <= x28,8 <= 1
0 <= x28,9 <= 1
0 <= x29,6 <= 1
0 <= x29,7 <= 1
0 <= x29,8 <= 1
0 <= x29,9 <= 1
0 <= x29,10 <= 1
0 <= x30,5 <= 1
0 <= x30,6 <= 1
0 <= x30,7 <= 1
0 <= x30,8 <= 1
0 <= x31,4 <= 1
0 <= x31,5 <= 1
0 <= x31,6 <= 1
0 <= x31,7 <= 1
0 <= x32,3 <= 1
0 <= x32,4 <= 1
0 <= x32,5 <= 1
0 <= x32,6 <= 1
0 <= x33,8 <= 1
0 <= x33,9 <= 1
0 <= x34,9 <= 1
0 <= x35,9 <= 1
0 <= x35,10 <= 1
0 <= x36,8 <= 1
0 <= x37,7 <= 1
0 <= x38,6 <= 1
0 <= x39,8 <= 1
0 <= x39,9 <= 1
0 <= x40,9 <= 1
0 <= x41,9 <= 1
0 <= x41,10 <= 1
0 <= x42,8 <= 1
0 <= x43,7 <= 1
0 <= x44,6 <= 1
0 <= x45,5 <= 1
0 <= x46,3 <= 1
0 <= x47,2 <= 1
0 <= x48,3 <= 1
0 <= x48,4 <= 1
0 <= x48,5 <= 1
0 <= x48,6 <= 1
0 <= x48,7 <= 1
0 <= x48,8 <= 1
0 <= x48,9 <= 1
0 <= x49,4 <= 1
0 <= x49,5 <= 1
0 <= x49,6 <= 1
0 <= x49,7 <= 1
0 <= x49,8 <= 1
0 <= x49,9 <= 1
0 <= x50,4 <= 1
0 <= x50,5 <= 1
0 <= x50,6 <= 1
0 <= x50,7 <= 1
0 <= x50,8 <= 1
0 <= x50,9 <= 1
0 <= x50,10 <= 1
0 <= x51,3 <= 1
0 <= x51,4 <= 1
0 <= x51,5 <= 1
0 <= x51,6 <= 1
0 <= x51,7 <= 1
0 <= x51,8 <= 1
0 <= x52,2 <= 1
0 <= x52,3 <= 1
0 <= x52,4 <= 1
0 <= x52,5 <= 1
0 <= x52,6 <= 1
0 <= x52,7 <= 1
0 <= x53,1 <= 1
0 <= x54,5 <= 1
0 <= x54,6 <= 1
0 <= x54,7 <= 1
0 <= x54,8 <= 1
0 <= x54,9 <= 1
0 <= x55,6 <= 1
0 <= x55,7 <= 1
0 <= x55,8 <= 1
0 <= x55,9 <= 1
0 <= x56,6 <= 1
0 <= x56,7 <= 1
0 <= x56,8 <= 1
0 <= x56,9 <= 1
0 <= x56,10 <= 1
0 <= x57,5 <= 1
0 <= x57,6 <= 1
0 <= x57,7 <= 1
0 <= x57,8 <= 1
0 <= x58,4 <= 1
0 <= x58,5 <= 1
0 <= x58,6 <= 1
0 <= x58,7 <= 1
0 <= x59,3 <= 1
0 <= x59,4 <= 1
0 <= x59,5 <= 1
0 <= x59,6 <= 1
0 <= x60,8 <= 1
0 <= x60,9 <= 1
0 <= x61,9 <= 1
0 <= x62,9 <= 1
0 <= x62,10 <= 1
0 <= x63,8 <= 1
0 <= x64,7 <= 1
0 <= x65,6 <= 1
0 <= x66,8 <= 1
0 <= x66,9 <= 1
0 <= x67,9 <= 1
0 <= x68,9 <= 1
0 <= x68,10 <= 1
0 <= x69,8 <= 1
0 <= x70,7 <= 1
0 <= x71,6 <= 1
0 <= x72,5 <= 1
0 <= x73,3 <= 1
0 <= x74,2 <= 1
0 <= x75,3 <= 1
0 <= x75,4 <= 1
0 <= x75,5 <= 1
0 <= x75,6 <= 1
0 <= x75,7 <= 1
0 <= x75,8 <= 1
0 <= x75,9 <= 1
0 <= x76,4 <= 1
0 <= x76,5 <= 1
0 <= x76,6 <= 1
0 <= x76,7 <= 1
0 <= x76,8 <= 1
0 <= x76,9 <= 1
0 <= x77,4 <= 1
0 <= x77,5 <= 1
0 <= x77,6 <= 1
0 <= x77,7 <= 1
0 <= x77,8 <= 1
0 <= x77,9 <= 1
0 <= x77,10 <= 1
0 <= x78,3 <= 1
0 <= x78,4 <= 1
0 <= x78,5 <= 1
0 <= x78,6 <= 1
0 <= x78,7 <= 1
0 <= x78,8 <= 1
0 <= x79,2 <= 1
0 <= x79,3 <= 1
0 <= x79,4 <= 1
0 <= x79,5 <= 1
0 <= x79,6 <= 1
0 <= x79,7 <= 1
0 <= x80,1 <= 1
0 <= x81,5 <= 1
0 <= x81,6 <= 1
0 <= x81,7 <= 1
0 <= x81,8 <= 1
0 <= x81,9 <= 1
0 <= x82,6 <= 1
0 <= x82,7 <= 1
0 <= x82,8 <= 1
0 <= x82,9 <= 1
0 <= x83,6 <= 1
0 <= x83,7 <= 1
0 <= x83,8 <= 1
0 <= x83,9 <= 1
0 <= x83,10 <= 1
0 <= x84,5 <= 1
0 <= x84,6 <= 1
0 <= x84,7 <= 1
0 <= x84,8 <= 1
0 <= x85,4 <= 1
0 <= x85,5 <= 1
0 <= x85,6 <= 1
0 <= x85,7 <= 1
0 <= x86,3 <= 1
0 <= x86,4 <= 1
0 <= x86,5 <= 1
0 <= x86,6 <= 1
0 <= x87,8 <= 1
0 <= x87,9 <= 1
0 <= x88,9 <= 1
0 <= x89,9 <= 1
0 <= x89,10 <= 1
0 <= x90,8 <= 1
0 <= x91,7 <= 1
0 <= x92,6 <= 1
0 <= x93,8 <= 1
0 <= x93,9 <= 1
0 <= x94,9 <= 1
0 <= x95,9 <= 1
0 <= x95,10 <= 1
0 <= x96,8 <= 1
0 <= x97,7 <= 1
0 <= x98,6 <= 1
0 <= x99,5 <= 1
0 <= x100,3 <= 1
0 <= x101,2 <= 1
0 <= x102,3 <= 1
0 <= x102,4 <= 1
0 <= x102,5 <= 1
0 <= x102,6 <= 1
0 <= x102,7 <= 1
0 <= x102,8 <= 1
0 <= x102,9 <= 1
0 <= x103,4 <= 1
0 <= x103,5 <= 1
0 <= x103,6 <= 1
0 <= x103,7 <= 1
0 <= x103,8 <= 1
0 <= x103,9 <= 1
0 <= x104,4 <= 1
0 <= x104,5 <= 1
0 <= x104,6 <= 1
0 <= x104,7 <= 1
0 <= x104,8 <= 1
0 <= x104,9 <= 1
0 <= x104,10 <= 1
0 <= x105,3 <= 1
0 <= x105,4 <= 1
0 <= x105,5 <= 1
0 <= x105,6 <= 1
0 <= x105,7 <= 1
0 <= x105,8 <= 1
0 <= x106,2 <= 1
0 <= x106,3 <= 1
0 <= x106,4 <= 1
0 <= x106,5 <= 1
0 <= x106,6 <= 1
0 <= x106,7 <= 1
0 <= x107,1 <= 1
M1 >= 1
M2 >= 1
Generals
x0,5
x0,6
x0,7
x0,8
x0,9
x1,6
x1,7
x1,8
x1,9
x2,6
x2,7
x2,8
x2,9
x2,10
x3,5
x3,6
x3,7
x3,8
x4,4
x4,5
x4,6
x4,7
x5,3
x5,4
x5,5
x5,6
x6,8
x6,9
x7,9
x8,9
x8,10
x9,8
x10,7
x11,6
x12,8
x12,9
x13,9
x14,9
x14,10
x15,8
x16,7
x17,6
x18,5
x19,3
x20,2
x21,3
x21,4
x21,5
x21,6
x21,7
x21,8
x21,9
x22,4
x22,5
x22,6
x22,7
x22,8
x22,9
x23,4
x23,5
x23,6
x23,7
x23,8
x23,9
x23,10
x24,3
x24,4
x24,5
x24,6
x24,7
x24,8
x25,2
x25,3
x25,4
x25,5
x25,6
x25,7
x26,1
x27,5
x27,6
x27,7
x27,8
x27,9
x28,6
x28,7
x28,8
x28,9
x29,6
x29,7
x29,8
x29,9
x29,10
x30,5
x30,6
x30,7
x30,8
x31,4
x31,5
x31,6
x31,7
x32,3
x32,4
x32,5
x32,6
x33,8
x33,9
x34,9
x35,9
x35,10
x36,8
x37,7
x38,6
x39,8
x39,9
x40,9
x41,9
x41,10
x42,8
x43,7
x44,6
x45,5
x46,3
x47,2
x48,3
x48,4
x48,5
x48,6
x48,7
x48,8
x48,9
x49,4
x49,5
x49,6
x49,7
x49,8
x49,9
x50,4
x50,5
x50,6
x50,7
x50,8
x50,9
x50,10
x51,3
x51,4
x51,5
x51,6
x51,7
x51,8
x52,2
x52,3
x52,4
x52,5
x52,6
x52,7
x53,1
x54,5
x54,6
x54,7
x54,8
x54,9
x55,6
x55,7
x55,8
x55,9
x56,6
x56,7
x56,8
x56,9
x56,10
x57,5
x57,6
x57,7
x57,8
x58,4
x58,5
x58,6
x58,7
x59,3
x59,4
x59,5
x59,6
x60,8
x60,9
x61,9
x62,9
x62,10
x63,8
x64,7
x65,6
x66,8
x66,9
x67,9
x68,9
x68,10
x69,8
x70,7
x71,6
x72,5
x73,3
x74,2
x75,3
x75,4
x75,5
x75,6
x75,7
x75,8
x75,9
x76,4
x76,5
x76,6
x76,7
x76,8
x76,9
x77,4
x77,5
x77,6
x77,7
x77,8
x77,9
x77,10
x78,3
x78,4
x78,5
x78,6
x78,7
x78,8
x79,2
x79,3
x79,4
x79,5
x79,6
x79,7
x80,1
x81,5
x81,6
x81,7
x81,8
x81,9
x82,6
x82,7
x82,8
x82,9
x83,6
x83,7
x83,8
x83,9
x83,10
x84,5
x84,6
x84,7
x84,8
x85,4
x85,5
x85,6
x85,7
x86,3
x86,4
x86,5
x86,6
x87,8
x87,9
x88,9
x89,9
x89,10
x90,8
x91,7
x92,6
x93,8
x93,9
x94,9
x95,9
x95,10
x96,8
x97,7
x98,6
x99,5
x100,3
x101,2
x102,3
x102,4
x102,5
x102,6
x102,7
x102,8
x102,9
x103,4
x103,5
x103,6
x103,7
x103,8
x103,9
x104,4
x104,5
x104,6
x104,7
x104,8
x104,9
x104,10
x105,3
x105,4
x105,5
x105,6
x105,7
x105,8
x106,2
x106,3
x106,4
x106,5
x106,6
x106,7
x107,1
M1
M2
End
